 200 56 
 6 37 99 16 4 51 7 96 49 11 25 12 
 89 38 20 64 50 77 26 92 88 74 79 82 
 41 43 41 54 7 35 89 70 29 19 17 92 
 99 4 30 80 47 16 28 85 29 22 32 51 
 22 59 48 37 28 51 46 52 
 21 
 5 8 13 15 16 17 18 19 22 23 27 28 
 38 42 43 44 45 49 51 52 54 
 7 
 4 11 12 27 39 41 54 
 37 
 1 2 5 6 8 9 10 11 12 13 14 17 
 18 20 21 22 24 27 29 31 32 33 35 37 
 38 41 42 43 44 45 47 50 51 52 54 55 
 56 
 44 
 2 3 4 5 6 7 8 10 12 13 14 16 
 17 18 19 20 21 22 23 24 27 28 29 31 
 32 33 35 37 38 39 40 41 42 43 44 45 
 46 48 49 50 51 52 54 56 
 9 
 7 9 10 11 16 26 33 41 52 
 30 
 1 3 6 7 8 9 10 11 12 13 14 15 
 16 17 18 22 24 28 30 34 35 36 38 39 
 44 45 48 49 51 53 
 23 
 1 2 4 5 12 15 16 17 19 20 22 24 
 29 30 33 35 39 45 48 49 52 55 56 
 25 
 4 6 7 9 10 12 16 17 19 30 32 33 
 35 37 39 40 43 44 45 46 50 52 53 55 
 56 
 43 
 2 4 5 6 7 8 9 10 12 13 16 17 
 18 19 20 21 23 24 25 26 28 29 30 31 
 33 36 37 38 40 41 42 43 44 45 47 48 
 50 51 52 53 54 55 56 
 3 
 1 20 51 
 27 
 1 2 4 6 7 11 12 14 15 16 17 24 
 26 28 31 32 33 34 35 40 41 47 48 50 
 51 52 55 
 53 
 1 2 4 5 6 7 8 9 10 11 12 13 
 14 15 16 17 18 19 20 21 22 23 24 25 
 26 28 29 30 31 32 33 34 35 36 37 38 
 39 40 41 42 43 44 45 46 47 48 50 51 
 52 53 54 55 56 
 55 
 1 2 3 4 5 6 7 8 9 10 11 12 
 13 14 15 16 17 18 19 20 21 22 23 24 
 25 26 27 28 29 30 31 32 33 34 35 36 
 37 38 39 40 41 42 44 45 46 47 48 49 
 50 51 52 53 54 55 56 
 17 
 2 4 10 12 16 18 23 26 30 34 38 40 
 42 44 45 50 53 
 30 
 2 3 7 12 14 15 16 19 20 21 22 23 
 24 26 28 30 31 33 34 35 36 38 40 41 
 44 45 46 49 54 56 
 24 
 2 3 4 6 8 11 12 23 24 25 27 29 
 35 36 37 38 41 48 49 50 52 53 54 56 
 35 
 1 2 5 6 7 8 9 11 12 13 15 16 
 19 26 27 31 32 33 34 35 36 37 38 39 
 40 41 42 43 44 45 47 49 53 54 55 
 22 
 1 2 5 6 11 17 19 20 21 22 23 29 
 32 34 35 37 38 42 43 45 48 49 
 40 
 1 3 6 7 9 11 12 13 14 15 16 17 
 19 20 21 23 25 26 27 28 29 30 31 32 
 33 35 36 38 40 41 43 44 45 46 49 50 
 52 53 54 55 
 37 
 2 3 5 6 7 9 10 12 15 16 17 18 
 19 21 22 23 24 25 26 27 28 29 30 36 
 37 38 40 42 43 47 48 49 52 53 54 55 
 56 
 18 
 5 8 9 10 12 16 21 26 33 34 35 36 
 37 45 47 49 52 55 
 53 
 1 2 3 4 5 6 7 8 9 11 13 14 
 15 16 17 18 19 20 21 22 23 24 25 26 
 27 28 29 30 31 32 33 34 35 36 37 38 
 39 40 41 42 43 44 45 46 47 48 49 50 
 51 52 53 55 56 
 9 
 1 15 19 20 27 38 46 47 50 
 13 
 4 5 12 13 18 28 34 35 41 42 50 51 
 52 
 27 
 1 2 7 10 11 12 14 16 17 19 21 22 
 23 25 26 28 30 36 37 38 42 44 45 46 
 48 50 51 
 49 
 1 2 3 4 5 6 8 9 10 11 12 13 
 14 15 16 17 18 19 20 21 22 23 24 25 
 26 28 29 30 31 33 35 38 39 40 41 42 
 43 44 45 46 47 48 50 51 52 53 54 55 
 56 
 41 
 1 2 3 4 7 8 9 10 11 12 13 14 
 21 22 24 25 27 28 30 32 33 34 37 38 
 39 40 41 42 43 44 45 46 47 48 49 50 
 51 52 53 54 55 
 28 
 1 6 7 8 10 12 13 15 16 19 20 21 
 24 26 30 31 35 37 38 39 42 45 47 51 
 52 53 54 55 
 32 
 1 4 6 7 8 9 10 11 12 13 14 18 
 21 22 24 25 26 27 33 34 36 39 40 44 
 45 48 50 51 52 54 55 56 
 14 
 3 4 5 9 16 18 19 21 26 33 39 45 
 53 54 
 3 
 8 12 31 
 48 
 1 3 4 5 6 7 8 9 11 12 13 14 
 15 16 17 18 19 20 21 22 23 24 25 26 
 27 28 29 30 31 32 34 36 37 38 39 41 
 42 43 44 45 46 48 49 51 52 53 54 55 
 48 
 1 2 3 4 5 7 8 9 10 13 14 15 
 16 18 19 21 22 23 24 25 26 27 28 29 
 30 31 32 34 35 37 38 39 40 41 42 43 
 44 45 46 47 48 49 51 52 53 54 55 56 
 16 
 3 11 15 20 21 23 26 27 30 36 37 40 
 42 46 48 52 
 51 
 1 3 4 5 6 7 8 9 10 12 13 15 
 16 17 18 19 20 21 22 23 25 26 27 28 
 29 30 31 32 33 34 35 36 37 38 39 40 
 41 42 43 44 45 46 47 48 49 50 51 52 
 53 54 56 
 19 
 1 2 3 10 12 16 18 20 21 22 23 34 
 39 40 42 43 44 48 52 
 40 
 1 2 3 4 5 6 7 8 10 11 13 14 
 15 16 17 18 19 20 21 22 26 28 29 30 
 31 32 34 35 36 39 43 44 45 46 47 50 
 51 52 53 55 
 10 
 10 15 19 27 28 31 43 45 47 55 
 26 
 1 3 4 5 8 10 14 15 19 26 27 29 
 30 31 33 35 36 37 39 41 42 44 45 48 
 51 55 
 13 
 15 17 20 22 36 37 39 42 43 45 47 53 
 56 
 12 
 5 9 10 11 17 22 26 27 40 41 42 43 
 20 
 2 6 8 9 11 14 20 23 26 27 31 35 
 40 41 42 45 46 53 55 56 
 33 
 2 8 9 10 11 13 17 20 21 22 23 24 
 28 29 30 32 35 36 37 38 40 41 43 44 
 45 46 48 50 51 52 53 54 56 
 12 
 4 8 13 20 24 25 35 36 40 41 43 48 
 43 
 1 3 4 5 6 8 9 10 11 12 13 14 
 15 17 18 19 20 21 22 23 24 25 27 28 
 29 30 31 32 34 37 38 39 40 42 44 45 
 47 50 51 52 53 55 56 
 15 
 1 3 9 13 16 19 20 22 23 24 25 26 
 29 32 51 
 34 
 1 2 3 4 6 7 8 11 13 15 16 17 
 18 19 21 22 25 28 31 32 35 36 38 39 
 43 44 45 48 49 50 52 53 54 56 
 31 
 2 3 6 7 8 13 15 16 18 20 21 23 
 24 28 31 32 34 35 40 41 42 43 44 46 
 49 50 51 52 53 54 55 
 26 
 2 4 5 14 15 16 17 18 20 24 25 26 
 29 30 33 34 35 36 40 43 44 45 46 50 
 54 56 
 28 
 1 2 3 5 6 7 15 16 18 26 27 28 
 29 30 31 34 35 41 43 44 45 46 47 48 
 49 50 55 56 
 46 
 1 2 4 5 6 7 8 9 10 13 14 15 
 16 17 20 21 22 23 24 25 26 27 28 29 
 31 32 33 34 35 36 37 38 39 40 42 44 
 46 47 48 50 51 52 53 54 55 56 
 10 
 7 8 19 22 23 35 36 37 42 43 
 26 
 1 2 5 7 9 10 11 12 16 17 24 25 
 27 29 31 32 34 36 37 38 40 43 44 48 
 50 55 
 36 
 1 2 4 7 10 12 14 16 17 18 19 20 
 21 22 23 24 26 28 29 30 31 33 34 35 
 36 38 41 42 44 45 46 50 51 52 53 56 
 50 
 1 2 3 4 5 6 7 8 9 10 12 13 
 14 15 17 18 19 20 21 22 23 25 26 27 
 29 30 31 32 33 34 35 36 37 38 39 40 
 42 43 45 46 47 48 49 50 51 52 53 54 
 55 56 
 8 
 3 25 30 43 50 51 53 54 
 10 
 3 6 10 18 28 31 38 40 41 45 
 25 
 2 4 5 6 9 10 11 15 16 17 19 20 
 25 26 27 28 31 32 34 42 45 49 52 53 
 56 
 3 
 16 24 37 
 49 
 1 2 3 4 5 6 7 9 10 11 12 13 
 14 15 16 17 18 20 21 24 25 26 27 28 
 30 31 32 33 34 35 36 37 38 39 40 41 
 42 43 44 46 47 48 49 50 51 53 54 55 
 56 
 31 
 1 2 4 5 7 8 10 13 15 16 20 24 
 25 26 29 30 32 33 34 35 37 39 41 44 
 45 46 49 51 53 54 56 
 17 
 2 5 9 11 12 17 19 20 29 30 32 46 
 47 48 51 54 56 
 11 
 1 7 10 13 14 19 21 26 30 31 40 
 39 
 2 4 6 7 8 10 11 12 14 16 22 24 
 25 26 27 28 29 30 31 32 33 34 35 36 
 38 39 42 43 45 46 47 48 49 50 51 52 
 53 55 56 
 38 
 2 3 5 6 7 8 9 10 11 12 13 14 
 16 17 18 19 20 21 22 23 24 25 27 30 
 31 36 38 39 40 41 42 43 49 51 52 53 
 54 55 
 3 
 14 24 33 
 47 
 1 2 3 4 5 6 8 10 11 12 13 14 
 15 16 17 18 19 20 23 24 25 26 28 30 
 31 32 34 35 36 37 38 39 41 42 43 44 
 45 46 48 49 50 51 52 53 54 55 56 
 24 
 1 7 10 11 12 14 16 18 20 22 23 25 
 27 29 33 40 44 47 48 49 51 52 55 56 
 11 
 6 8 10 11 12 17 24 29 33 34 41 
 37 
 1 2 3 4 5 6 7 8 10 11 17 18 
 20 21 22 23 26 29 30 31 32 33 34 35 
 38 39 41 42 43 44 45 46 47 49 50 54 
 55 
 55 
 1 2 3 4 5 6 7 8 9 10 11 12 
 13 14 15 16 17 18 19 20 21 22 23 25 
 26 27 28 29 30 31 32 33 34 35 36 37 
 38 39 40 41 42 43 44 45 46 47 48 49 
 50 51 52 53 54 55 56 
 48 
 1 2 3 4 5 6 7 8 9 10 11 13 
 14 16 17 20 22 23 24 25 27 28 29 30 
 31 32 33 34 35 36 37 38 39 40 41 42 
 43 44 45 46 47 49 50 51 52 53 54 56 
 8 
 17 21 26 28 37 40 51 53 
 13 
 6 8 18 21 22 23 25 32 34 40 41 43 
 53 
 32 
 5 7 10 11 12 14 15 17 18 19 21 22 
 23 24 25 27 32 33 35 37 38 39 42 43 
 44 45 47 51 52 53 54 55 
 38 
 2 5 6 7 9 10 11 12 13 14 16 19 
 23 24 26 28 29 30 31 32 33 34 37 38 
 39 40 41 44 45 46 47 48 49 50 51 52 
 54 55 
 44 
 1 2 3 5 6 7 9 10 11 12 14 15 
 16 19 20 21 23 24 26 28 29 30 31 32 
 33 34 36 39 40 41 42 43 44 45 46 48 
 49 50 51 52 53 54 55 56 
 38 
 1 2 3 6 7 9 10 11 12 13 15 17 
 20 21 22 23 25 26 27 28 29 30 31 32 
 34 36 38 39 40 41 42 44 47 51 53 54 
 55 56 
 20 
 2 3 4 6 7 9 11 13 23 24 27 31 
 33 40 42 45 46 48 49 55 
 6 
 6 7 11 20 27 33 
 55 
 1 2 3 4 5 6 7 8 9 10 11 12 
 13 14 15 16 17 18 19 20 21 22 23 24 
 25 26 27 28 29 30 31 32 33 34 35 36 
 37 38 39 40 41 42 43 44 45 46 47 48 
 49 50 52 53 54 55 56 
 39 
 1 2 5 6 9 12 13 14 15 16 17 18 
 19 20 22 23 24 25 26 27 28 29 30 31 
 34 35 36 37 41 43 44 45 46 48 51 52 
 53 54 56 
 42 
 2 3 4 5 6 7 9 10 11 12 13 14 
 15 16 17 18 20 21 22 23 24 25 26 27 
 29 30 33 34 36 37 39 42 43 44 45 46 
 47 48 49 51 54 55 
 21 
 5 9 11 13 14 16 20 21 22 24 26 30 
 31 36 41 44 45 48 49 51 56 
 40 
 2 3 4 5 6 8 10 11 12 13 14 15 
 16 17 18 19 20 21 22 24 26 27 28 29 
 30 32 34 36 40 41 45 46 48 49 51 52 
 53 54 55 56 
 42 
 1 2 3 4 5 6 10 11 12 13 18 19 
 21 22 23 24 25 26 27 28 29 30 31 32 
 33 34 35 36 38 39 40 41 42 43 44 45 
 48 49 51 52 53 56 
 45 
 1 2 3 5 6 7 8 9 11 12 13 14 
 15 16 17 18 19 20 21 22 25 27 29 30 
 32 33 34 35 36 37 39 40 41 42 43 45 
 46 47 48 49 50 51 53 55 56 
 55 
 1 2 3 4 5 6 7 8 9 10 11 13 
 14 15 16 17 18 19 20 21 22 23 24 25 
 26 27 28 29 30 31 32 33 34 35 36 37 
 38 39 40 41 42 43 44 45 46 47 48 49 
 50 51 52 53 54 55 56 
 13 
 4 8 12 14 15 20 26 29 31 32 35 42 
 52 
 42 
 1 2 3 4 5 6 8 9 10 11 12 13 
 14 15 17 18 20 21 22 23 25 27 28 31 
 33 34 35 37 38 39 41 42 43 46 47 48 
 49 50 51 52 53 56 
 5 
 35 36 46 50 56 
 7 
 6 8 12 21 31 37 50 
 25 
 3 5 10 12 13 15 16 17 19 20 22 23 
 27 28 30 32 33 35 37 41 42 43 46 49 
 50 
 28 
 1 3 5 7 13 15 18 19 20 21 22 24 
 26 28 30 31 32 34 38 41 42 43 45 46 
 50 51 52 56 
 32 
 2 8 10 11 13 15 18 19 20 22 23 24 
 26 27 28 29 36 37 38 39 40 41 42 44 
 45 46 47 51 52 54 55 56 
 46 
 2 3 4 5 6 7 8 9 11 12 13 14 
 15 16 18 19 21 22 23 24 25 26 27 28 
 29 30 31 32 33 34 35 36 37 38 40 41 
 43 44 46 47 48 49 52 53 55 56 
 53 
 1 2 4 5 6 7 8 9 10 11 12 13 
 15 16 17 18 19 20 21 22 23 24 25 26 
 27 28 29 30 31 32 33 34 35 36 37 38 
 39 40 41 42 43 44 46 47 48 49 50 51 
 52 53 54 55 56 
 10 
 7 8 11 17 18 20 26 38 39 55 
 18 
 2 7 10 13 15 24 25 26 29 30 34 40 
 41 43 49 50 51 55 
 19 
 1 6 7 8 11 14 16 17 19 24 27 30 
 34 43 44 46 49 52 56 
 12 
 8 10 11 16 17 19 30 32 33 42 44 46 
 48 
 1 2 3 4 5 6 7 8 10 11 12 13 
 14 15 16 17 18 19 20 21 22 23 24 26 
 27 28 29 30 31 32 33 34 35 36 37 38 
 40 42 43 44 45 46 49 50 51 52 53 56 
 29 
 6 7 9 10 12 14 16 17 21 22 23 24 
 27 28 29 31 32 36 39 42 43 44 45 46 
 48 51 52 55 56 
 30 
 1 2 4 5 9 10 11 12 13 15 18 19 
 21 22 26 28 29 31 32 35 36 38 41 43 
 44 47 49 52 53 55 
 55 
 1 2 3 4 5 6 7 8 9 10 11 12 
 13 14 15 16 17 18 19 20 21 22 23 24 
 25 26 27 28 29 30 31 32 33 34 36 37 
 38 39 40 41 42 43 44 45 46 47 48 49 
 50 51 52 53 54 55 56 
 7 
 3 14 19 28 37 39 49 
 36 
 2 4 7 8 9 10 12 14 15 17 18 22 
 26 27 28 29 30 32 33 34 35 36 37 40 
 41 42 43 44 47 48 49 51 52 53 55 56 
 35 
 2 6 8 9 10 11 14 15 16 17 19 20 
 22 24 25 26 28 29 31 33 36 37 39 40 
 41 42 43 46 50 51 52 53 54 55 56 
 25 
 1 2 6 7 12 14 17 20 21 22 23 24 
 30 31 33 34 36 39 44 46 48 49 50 53 
 54 
 54 
 1 2 3 4 5 6 7 8 9 10 11 12 
 15 16 17 18 19 20 21 22 23 24 25 26 
 27 28 29 30 31 32 33 34 35 36 37 38 
 39 40 41 42 43 44 45 46 47 48 49 50 
 51 52 53 54 55 56 
 24 
 1 6 9 12 20 21 22 23 24 25 26 33 
 34 37 38 40 41 43 46 50 52 53 54 56 
 48 
 1 2 3 4 5 6 7 8 9 11 12 13 
 14 16 17 19 20 21 22 23 24 25 26 27 
 29 30 31 32 34 35 36 37 38 41 43 44 
 45 46 47 48 49 50 51 52 53 54 55 56 
 34 
 1 2 4 5 7 9 11 12 15 16 17 18 
 19 20 21 25 29 30 31 32 33 34 36 37 
 39 40 41 46 48 50 51 52 53 54 
 53 
 1 2 4 5 6 7 8 9 10 11 12 13 
 14 15 16 17 18 19 20 21 22 23 24 25 
 26 27 29 30 31 32 34 35 36 37 38 39 
 40 41 42 43 44 45 46 47 48 49 50 51 
 52 53 54 55 56 
 55 
 1 2 3 4 5 6 7 8 9 10 11 12 
 13 14 15 16 17 18 19 20 21 22 23 24 
 25 26 27 28 29 30 31 32 33 34 35 36 
 37 38 39 40 41 42 43 44 46 47 48 49 
 50 51 52 53 54 55 56 
 28 
 2 3 8 10 11 12 13 15 21 22 24 25 
 26 27 29 32 33 35 38 42 43 45 46 47 
 49 50 52 53 
 6 
 3 9 17 31 48 56 
 20 
 1 3 5 7 11 12 14 17 21 24 30 31 
 32 33 37 39 43 45 50 54 
 32 
 1 2 3 4 5 7 9 10 13 16 17 18 
 19 20 27 28 31 32 33 34 36 39 40 41 
 43 45 46 47 48 51 54 56 
 46 
 1 2 4 5 6 7 8 9 10 12 14 15 
 16 17 18 19 21 22 23 26 27 28 29 30 
 32 33 34 35 36 37 38 39 41 42 43 44 
 46 47 48 49 50 51 53 54 55 56 
 37 
 4 5 6 7 8 9 11 13 14 15 16 17 
 19 20 22 24 25 26 27 28 29 33 35 36 
 37 38 41 42 43 46 48 50 52 53 54 55 
 56 
 14 
 2 7 9 10 16 26 29 43 45 47 49 51 
 53 55 
 24 
 1 7 9 10 13 14 17 19 24 28 31 32 
 33 36 37 39 40 43 44 49 50 53 54 55 
 10 
 7 11 20 26 35 37 40 45 52 56 
 43 
 2 3 5 6 7 8 9 10 12 13 14 15 
 16 18 19 21 23 24 26 28 29 30 31 32 
 34 35 37 38 40 41 42 43 44 45 46 47 
 48 50 51 52 53 54 55 
 22 
 1 2 3 6 8 10 11 12 14 15 16 20 
 22 35 37 39 41 44 47 49 54 55 
 37 
 1 2 3 4 5 6 8 9 11 13 14 15 
 16 18 19 20 21 22 25 28 29 30 31 33 
 34 36 38 39 40 43 45 47 48 49 53 55 
 56 
 18 
 2 3 7 13 16 23 24 27 31 32 35 36 
 37 43 45 47 53 55 
 10 
 2 5 6 7 11 12 21 35 36 45 
 2 
 19 52 
 10 
 4 5 24 31 38 41 43 46 47 53 
 26 
 3 4 6 8 12 13 18 19 20 22 24 28 
 29 30 32 33 34 38 39 41 42 47 52 53 
 54 56 
 46 
 1 2 3 4 6 7 8 9 10 11 13 14 
 16 18 19 20 22 23 24 25 26 27 28 29 
 30 31 32 33 34 35 36 38 39 40 41 42 
 44 45 47 48 49 50 51 53 55 56 
 25 
 3 4 5 6 8 9 10 16 17 21 22 23 
 24 27 28 33 36 41 42 43 44 45 46 50 
 54 
 17 
 2 6 7 13 14 15 20 27 28 33 34 36 
 38 41 45 51 56 
 20 
 3 6 7 11 12 15 16 17 18 20 23 25 
 39 41 43 45 46 51 54 56 
 52 
 1 2 3 4 6 7 8 9 10 11 12 13 
 14 15 16 17 18 19 20 21 22 23 24 25 
 26 27 28 29 31 32 34 35 36 37 38 39 
 41 42 43 44 45 46 47 48 49 50 51 52 
 53 54 55 56 
 36 
 1 3 4 5 7 8 9 10 11 12 13 14 
 15 16 19 20 21 22 25 26 27 30 32 33 
 34 38 39 41 42 45 46 48 50 51 53 55 
 49 
 1 2 3 4 6 7 9 10 11 12 13 14 
 15 16 17 18 20 21 22 23 24 26 27 28 
 29 30 31 32 33 34 35 36 37 38 39 40 
 41 42 43 44 46 47 48 50 51 52 53 54 
 56 
 53 
 1 2 3 4 5 6 7 8 9 10 11 12 
 13 14 15 16 17 18 20 22 23 24 25 26 
 27 28 30 31 32 33 34 35 36 37 38 39 
 40 41 42 43 44 45 46 47 48 49 50 51 
 52 53 54 55 56 
 37 
 1 2 3 4 6 7 8 9 10 12 13 15 
 16 17 18 19 20 22 23 24 25 26 27 28 
 29 30 31 37 38 41 43 48 49 51 52 54 
 55 
 36 
 1 3 4 5 6 7 8 10 11 14 15 17 
 18 19 22 23 24 25 27 28 29 30 31 32 
 33 35 36 37 40 42 43 48 50 51 53 54 
 51 
 1 2 3 5 6 7 8 9 10 12 13 14 
 16 17 18 19 20 21 22 23 24 25 26 27 
 28 29 30 31 32 34 35 36 37 38 39 40 
 41 42 43 45 46 47 48 49 50 51 52 53 
 54 55 56 
 49 
 1 2 3 4 5 6 7 8 9 10 11 12 
 14 16 17 18 19 20 21 22 23 24 26 27 
 28 29 30 31 32 33 34 35 36 37 39 40 
 42 43 44 45 47 48 49 51 52 53 54 55 
 56 
 14 
 2 3 5 8 12 19 23 24 28 34 35 43 
 52 55 
 53 
 2 3 4 5 6 7 8 9 10 11 12 13 
 14 16 17 18 19 20 21 22 24 25 26 27 
 28 29 30 31 32 33 34 35 36 37 38 39 
 40 41 42 43 44 45 46 47 48 49 50 51 
 52 53 54 55 56 
 52 
 1 2 3 4 5 6 7 8 9 10 11 12 
 13 14 15 16 17 18 20 22 24 25 26 27 
 28 29 30 31 32 33 34 36 37 38 39 40 
 41 42 43 44 45 46 47 48 49 50 51 52 
 53 54 55 56 
 51 
 1 2 3 4 5 6 7 8 9 10 11 12 
 13 14 16 18 19 21 22 23 24 25 26 27 
 28 29 31 32 33 34 35 36 37 38 39 40 
 41 42 43 44 46 47 48 49 50 51 52 53 
 54 55 56 
 10 
 3 5 12 15 28 37 39 40 50 51 
 9 
 3 10 20 31 32 36 38 42 46 
 44 
 1 2 3 4 5 7 11 13 14 15 16 18 
 19 20 21 22 23 24 25 26 27 28 29 30 
 31 32 35 37 38 39 41 42 43 44 45 46 
 47 48 49 51 53 54 55 56 
 11 
 2 7 25 27 29 33 37 48 50 51 55 
 51 
 1 2 3 4 5 6 7 8 9 10 11 12 
 13 14 15 16 17 18 19 21 22 23 24 25 
 26 27 28 30 31 32 33 34 35 36 37 38 
 40 41 42 43 44 45 46 47 48 50 51 53 
 54 55 56 
 33 
 2 3 4 5 6 7 8 10 11 12 14 15 
 19 21 22 23 25 26 29 32 34 36 38 39 
 40 43 44 45 47 49 51 52 55 
 29 
 3 7 8 9 11 12 13 14 16 17 19 21 
 24 29 31 34 35 36 37 40 43 44 47 48 
 51 52 53 55 56 
 18 
 2 3 4 5 7 11 17 21 23 26 32 35 
 36 42 45 47 53 54 
 20 
 2 3 4 7 14 15 23 26 27 28 30 32 
 34 35 38 39 40 43 46 52 
 45 
 2 3 4 5 6 8 9 10 11 12 13 14 
 15 16 17 18 20 21 23 25 27 28 29 30 
 31 32 33 34 35 36 37 38 39 40 41 43 
 44 45 46 48 50 52 53 54 56 
 47 
 1 2 3 6 8 9 10 12 13 14 15 16 
 17 18 19 20 21 22 23 24 25 26 27 28 
 29 30 31 32 34 35 36 38 39 41 42 43 
 44 45 46 47 48 50 51 53 54 55 56 
 42 
 1 2 3 4 5 7 8 9 10 11 13 16 
 17 18 19 20 22 24 26 27 28 29 30 33 
 34 37 39 40 41 42 44 45 46 47 48 49 
 50 51 52 53 54 56 
 34 
 1 2 4 5 7 9 12 14 15 17 18 19 
 20 21 24 25 26 31 32 34 35 38 39 43 
 44 46 49 50 51 52 53 54 55 56 
 43 
 1 3 4 6 7 9 12 13 14 16 18 19 
 20 21 23 25 26 27 28 29 32 33 34 35 
 36 37 38 39 40 42 43 45 46 47 48 49 
 50 51 52 53 54 55 56 
 49 
 1 2 4 5 6 8 9 10 11 12 13 14 
 16 17 18 19 20 21 22 23 24 25 26 27 
 28 30 31 32 33 34 36 37 38 39 40 41 
 42 43 44 45 46 47 48 50 51 52 53 54 
 56 
 40 
 1 2 4 5 6 7 8 9 10 12 13 14 
 16 17 18 19 20 21 22 24 26 29 30 31 
 32 34 37 38 39 40 41 42 43 44 45 46 
 48 50 53 54 
 41 
 2 4 5 6 7 8 9 10 12 13 15 17 
 18 22 23 24 25 26 27 28 29 30 31 36 
 37 38 39 40 41 42 43 44 45 46 48 49 
 50 51 52 55 56 
 42 
 1 3 5 6 7 8 9 10 11 12 13 14 
 16 17 18 19 20 21 23 25 26 27 28 29 
 30 31 33 34 35 37 38 39 40 43 44 45 
 46 48 51 53 54 56 
 47 
 1 2 4 5 6 7 9 10 11 12 13 14 
 15 16 17 18 19 20 21 22 23 24 25 26 
 27 28 29 30 32 34 36 37 38 39 41 44 
 45 46 47 48 49 50 51 53 54 55 56 
 10 
 6 11 14 15 21 24 32 36 39 44 
 39 
 1 3 4 5 6 7 9 10 11 12 13 16 
 17 18 21 22 24 26 28 31 33 34 35 36 
 38 39 40 41 43 44 45 46 47 49 50 52 
 53 55 56 
 52 
 1 2 3 4 5 6 7 8 9 10 11 12 
 13 14 15 16 17 18 20 21 22 23 24 25 
 26 28 29 30 32 33 34 35 36 37 38 39 
 40 41 42 44 45 46 47 48 49 50 51 52 
 53 54 55 56 
 34 
 1 2 4 8 10 11 12 15 18 19 20 22 
 23 24 25 29 30 32 33 34 35 38 42 43 
 44 45 48 49 50 51 53 54 55 56 
 34 
 2 3 5 6 7 9 10 11 12 13 14 17 
 19 20 21 22 23 25 26 27 29 31 32 34 
 35 38 39 40 43 49 52 53 54 55 
 18 
 5 8 11 13 20 22 24 26 27 28 34 35 
 37 42 48 53 55 56 
 33 
 1 2 3 4 5 6 7 9 13 14 15 16 
 18 19 21 23 24 27 28 30 31 36 38 39 
 40 43 44 46 47 49 54 55 56 
 25 
 4 7 9 11 12 13 14 15 17 21 23 30 
 32 33 34 36 37 39 40 43 44 46 50 53 
 54 
 2 
 11 27 
 56 
 1 2 3 4 5 6 7 8 9 10 11 12 
 13 14 15 16 17 18 19 20 21 22 23 24 
 25 26 27 28 29 30 31 32 33 34 35 36 
 37 38 39 40 41 42 43 44 45 46 47 48 
 49 50 51 52 53 54 55 56 
 11 
 4 5 12 14 16 20 22 38 43 44 51 
 13 
 11 15 16 23 24 25 26 32 36 37 40 49 
 51 
 8 
 10 11 12 22 27 47 51 54 
 29 
 2 3 6 9 12 13 16 17 18 19 21 22 
 26 27 30 31 35 37 38 39 45 46 47 51 
 52 53 54 55 56 
 28 
 3 7 8 9 10 11 12 14 15 17 20 21 
 23 24 25 27 28 29 31 39 41 42 43 51 
 52 54 55 56 
 2 
 12 41 
 35 
 2 3 4 5 6 7 9 10 11 12 14 15 
 17 20 21 23 25 26 27 28 29 31 33 34 
 36 39 42 43 44 45 52 53 54 55 56 
 12 
 1 2 7 20 23 29 30 31 36 44 48 49 
 46 
 1 2 3 4 5 6 7 8 9 10 11 12 
 13 14 16 17 18 19 21 22 23 24 25 26 
 27 28 30 31 32 33 35 37 39 41 42 43 
 44 45 47 48 49 50 52 53 54 56 
 22 
 2 3 8 10 11 12 13 17 19 22 26 30 
 35 36 39 40 42 44 45 48 49 56 
 19 
 1 2 3 4 9 17 18 19 32 33 35 36 
 37 40 43 44 47 53 56 
 4 
 4 17 34 42 
 25 
 4 5 7 11 14 15 17 20 22 25 27 28 
 29 33 34 35 36 37 38 40 41 49 53 55 
 56 
 51 
 1 2 3 4 5 6 7 9 10 11 12 13 
 14 15 16 17 18 19 20 21 22 23 24 26 
 27 28 30 31 32 33 34 36 37 38 39 41 
 42 43 44 45 46 47 48 49 50 51 52 53 
 54 55 56 
 41 
 1 2 3 5 6 8 9 11 12 13 14 15 
 17 18 19 21 23 25 26 27 28 29 30 31 
 32 34 35 36 37 38 39 41 42 43 46 48 
 49 51 52 53 55 
 29 
 1 2 3 5 8 10 13 15 16 18 19 22 
 24 25 26 27 28 33 34 35 37 39 40 46 
 51 52 53 54 56 
 11 
 4 15 22 24 27 32 40 45 47 50 52 
 35 
 1 3 4 7 9 10 11 12 14 17 18 20 
 21 23 24 25 27 31 32 33 34 35 36 37 
 40 41 42 45 47 48 49 51 52 53 54 
 16 
 1 5 6 8 10 16 17 23 34 37 41 42 
 45 48 49 51 
 44 
 1 3 4 6 7 11 12 13 14 15 16 18 
 19 20 22 24 25 26 27 28 29 30 31 32 
 33 34 35 36 37 38 40 41 44 45 46 47 
 48 49 50 52 53 54 55 56 
 32 
 1 2 3 5 7 9 10 13 15 17 18 20 
 21 22 23 25 26 27 30 34 36 38 39 40 
 43 44 46 48 50 52 55 56 
 7 
 16 20 22 34 37 50 51 
 43 
 1 3 4 5 6 7 9 10 11 12 13 14 
 15 16 17 19 20 21 22 23 24 25 26 28 
 30 33 34 35 36 37 39 42 43 44 45 46 
 48 49 50 51 52 54 55 
 